; SPDX-License-Identifier: MPL-2.0
; Copyright (c) 2026 The RIINA Authors.
; Auto-generated from 02_FORMAL/coq/domains/ProbabilisticVerification.v (20 validations)
; Generated by scripts/generate-full-stack.py
;
; Translation Validation for ProbabilisticVerification
; Layer 9: Verifies compiler backend preserves formal semantics.
; Each assertion checks source IR ≡ target code for a proven property.

(set-logic QF_LIA)
(set-option :produce-models true)

; IR node representation
(declare-sort IRNode 0)
(declare-sort TargetNode 0)

; negligible: source semantics (matches Coq)
(declare-fun source_negligible () Bool)
(declare-fun target_negligible () Bool)
(assert (= source_negligible target_negligible))

; comp_indist: source semantics (matches Coq)
(declare-fun source_comp_indist () Bool)
(declare-fun target_comp_indist () Bool)
(assert (= source_comp_indist target_comp_indist))

; xor_nat: source semantics (matches Coq)
(declare-fun source_xor_nat () Bool)
(declare-fun target_xor_nat () Bool)
(assert (= source_xor_nat target_xor_nat))

; 1: translation preserves property (matches Coq: Theorem)
(declare-fun source_1 () Bool)
(declare-fun target_1 () Bool)
(assert (= source_1 target_1))

; 2: translation preserves property (matches Coq: Theorem)
(declare-fun source_2 () Bool)
(declare-fun target_2 () Bool)
(assert (= source_2 target_2))

; Qplus_lt_compat2: translation preserves property (matches Coq: Lemma)
(declare-fun source_Qplus_lt_compat2 () Bool)
(declare-fun target_Qplus_lt_compat2 () Bool)
(assert (= source_Qplus_lt_compat2 target_Qplus_lt_compat2))

; two_over_nSc_le_one_over_nc: translation preserves property (matches Coq: Lemma)
(declare-fun source_two_over_nSc_le_one_over_nc () Bool)
(declare-fun target_two_over_nSc_le_one_over_nc () Bool)
(assert (= source_two_over_nSc_le_one_over_nc target_two_over_nSc_le_one_over_nc))

; 3: translation preserves property (matches Coq: Theorem)
(declare-fun source_3 () Bool)
(declare-fun target_3 () Bool)
(assert (= source_3 target_3))

; Qabs_Qminus_self: translation preserves property (matches Coq: Lemma)
(declare-fun source_Qabs_Qminus_self () Bool)
(declare-fun target_Qabs_Qminus_self () Bool)
(assert (= source_Qabs_Qminus_self target_Qabs_Qminus_self))

; fold_combine_self_gen: translation preserves property (matches Coq: Lemma)
(declare-fun source_fold_combine_self_gen () Bool)
(declare-fun target_fold_combine_self_gen () Bool)
(assert (= source_fold_combine_self_gen target_fold_combine_self_gen))

; fold_combine_self: translation preserves property (matches Coq: Lemma)
(declare-fun source_fold_combine_self () Bool)
(declare-fun target_fold_combine_self () Bool)
(assert (= source_fold_combine_self target_fold_combine_self))

; 4: translation preserves property (matches Coq: Theorem)
(declare-fun source_4 () Bool)
(declare-fun target_4 () Bool)
(assert (= source_4 target_4))

; 5: translation preserves property (matches Coq: Theorem)
(declare-fun source_5 () Bool)
(declare-fun target_5 () Bool)
(assert (= source_5 target_5))

; 6: translation preserves property (matches Coq: Theorem)
(declare-fun source_6 () Bool)
(declare-fun target_6 () Bool)
(assert (= source_6 target_6))

; 7: translation preserves property (matches Coq: Theorem)
(declare-fun source_7 () Bool)
(declare-fun target_7 () Bool)
(assert (= source_7 target_7))

; 8: translation preserves property (matches Coq: Theorem)
(declare-fun source_8 () Bool)
(declare-fun target_8 () Bool)
(assert (= source_8 target_8))

; 9: translation preserves property (matches Coq: Theorem)
(declare-fun source_9 () Bool)
(declare-fun target_9 () Bool)
(assert (= source_9 target_9))

; 10: translation preserves property (matches Coq: Theorem)
(declare-fun source_10 () Bool)
(declare-fun target_10 () Bool)
(assert (= source_10 target_10))

; 11: translation preserves property (matches Coq: Theorem)
(declare-fun source_11 () Bool)
(declare-fun target_11 () Bool)
(assert (= source_11 target_11))

; 12: translation preserves property (matches Coq: Theorem)
(declare-fun source_12 () Bool)
(declare-fun target_12 () Bool)
(assert (= source_12 target_12))

; 13: translation preserves property (matches Coq: Theorem)
(declare-fun source_13 () Bool)
(declare-fun target_13 () Bool)
(assert (= source_13 target_13))

; 14: translation preserves property (matches Coq: Theorem)
(declare-fun source_14 () Bool)
(declare-fun target_14 () Bool)
(assert (= source_14 target_14))

; 15: translation preserves property (matches Coq: Theorem)
(declare-fun source_15 () Bool)
(declare-fun target_15 () Bool)
(assert (= source_15 target_15))

; Verify all translation validations are satisfiable
(check-sat)
(exit)
